NAME: ACTUAL_TOURS/amz2984
TYPE: TOUR
COMMENT: RouteID_e62d9e53-f1fb-4434-aa14-b064d95c7d1c
DIMENSION: 120
TOUR_SECTION
63
71
10
55
18
6
28
97
109
11
89
29
56
3
4
93
107
50
59
20
37
27
99
12
60
111
88
41
16
70
116
83
120
54
112
64
75
96
1
77
80
100
86
118
87
43
85
36
65
39
98
22
40
53
24
69
51
25
115
31
114
17
47
74
21
45
62
95
92
119
30
104
90
102
108
8
19
79
103
13
58
33
67
61
101
34
66
82
68
84
38
23
14
94
48
35
106
5
91
44
57
110
26
117
32
42
15
7
2
78
76
113
52
72
105
9
46
73
49
81
-1
EOF
